% Logging successfully configured
%%%mzn-stat: initTime=0.005529988
%%%mzn-stat: objective=655
%%%mzn-stat: nodes=247
%%%mzn-stat: restarts=0
%%%mzn-stat: peakDepth=247
%%%mzn-stat: solveTime=0.000928838
%%%mzn-stat: variables=512
%%%mzn-stat: propagators=361
%%%mzn-stat: failures=0
%%%mzn-stat: propagations=1176
%%%mzn-stat: nogoods=0
%%%mzn-stat: numAtomicConstraintsPropagated=0
%%%mzn-stat: circuitNumber1PropagationsTotal=35
%%%mzn-stat: circuitNumber1CircuitConflicts=0
%%%mzn-stat: circuitNumber1AlldiffConflicts=0
%%%mzn-stat: circuitNumber1TotalFixedEdgesAtConflict=0
%%%mzn-stat: circuitNumber1NumberOfConflicts=0
%%%mzn-stat: circuitNumber1GacPrunings=117
%%%mzn-stat: circuitNumber1PropagationsThatGacPruned=17
%%%mzn-stat: circuitNumber1TotalPruningHallSetSize=141
%%%mzn-stat: circuitNumber1NumberOfPruningExplanations=117
%%%mzn-stat: circuitNumber1MaxPruningHallSetSize=8
%%%mzn-stat: circuitNumber1TotalSccSizeAtPruning=41
%%%mzn-stat: circuitNumber1NumberOfSccPruningCalls=17
%%%mzn-stat: circuitNumber1TotalVarsInvolvedInPruning=114
%%%mzn-stat: circuitNumber1MaxValuesPrunedFromSingleVar=4
%%%mzn-stat: circuitNumber1HallCircuitChecks=32
%%%mzn-stat: circuitNumber1HallCircuitPrunings=9
%%%mzn-stat: circuitNumber1CircuitPreventPrunings=17
%%%mzn-stat: AverageConflictSize=0
%%%mzn-stat: NumUnitNogoodsLearned=0
%%%mzn-stat: AverageLearnedNogoodLength=0
%%%mzn-stat: AverageBacktrackAmount=0
%%%mzn-stat: AverageLbd=0
%%%mzn-stat: 2AutonomousSearchNumBackupCalled=231
%%%mzn-stat: 2AutonomousSearchNumPredicatesRemoved=0
%%%mzn-stat: 2AutonomousSearchNumCalls=232
%%%mzn-stat: 2AutonomousSearchNumPredicatesAdded=0
%%%mzn-stat: 2AutonomousSearchAverageSizeOfHeap=0
%%%mzn-stat: 2AutonomousSearchNumAssignedPredicatesEncountered=0
%%%mzn-stat-end
maxleg = 655;
succ = array1d(1..20,[7, 3, 4, 5, 6, 8, 2, 9, 10, 14, 12, 13, 16, 15, 17, 1, 18, 19, 20, 11]);
% time elapsed: 0.25 s
----------
%%%mzn-stat: initTime=0.005529988
%%%mzn-stat: objective=610
%%%mzn-stat: nodes=527
%%%mzn-stat: restarts=0
%%%mzn-stat: peakDepth=250
%%%mzn-stat: solveTime=0.005372376
%%%mzn-stat: variables=512
%%%mzn-stat: propagators=361
%%%mzn-stat: failures=29
%%%mzn-stat: propagations=2380
%%%mzn-stat: nogoods=29
%%%mzn-stat: numAtomicConstraintsPropagated=0
%%%mzn-stat: circuitNumber1PropagationsTotal=186
%%%mzn-stat: circuitNumber1CircuitConflicts=23
%%%mzn-stat: circuitNumber1AlldiffConflicts=0
%%%mzn-stat: circuitNumber1TotalFixedEdgesAtConflict=331
%%%mzn-stat: circuitNumber1NumberOfConflicts=23
%%%mzn-stat: circuitNumber1GacPrunings=511
%%%mzn-stat: circuitNumber1PropagationsThatGacPruned=97
%%%mzn-stat: circuitNumber1TotalPruningHallSetSize=986
%%%mzn-stat: circuitNumber1NumberOfPruningExplanations=511
%%%mzn-stat: circuitNumber1MaxPruningHallSetSize=8
%%%mzn-stat: circuitNumber1TotalSccSizeAtPruning=459
%%%mzn-stat: circuitNumber1NumberOfSccPruningCalls=97
%%%mzn-stat: circuitNumber1TotalVarsInvolvedInPruning=479
%%%mzn-stat: circuitNumber1MaxValuesPrunedFromSingleVar=4
%%%mzn-stat: circuitNumber1HallCircuitChecks=193
%%%mzn-stat: circuitNumber1HallCircuitPrunings=37
%%%mzn-stat: circuitNumber1CircuitPreventPrunings=88
%%%mzn-stat: AverageConflictSize=3.586206896551724
%%%mzn-stat: NumUnitNogoodsLearned=0
%%%mzn-stat: AverageLearnedNogoodLength=13.89655172413793
%%%mzn-stat: AverageBacktrackAmount=0
%%%mzn-stat: AverageLbd=8.620689655172415
%%%mzn-stat: 2AutonomousSearchNumBackupCalled=463
%%%mzn-stat: 2AutonomousSearchNumPredicatesRemoved=0
%%%mzn-stat: 2AutonomousSearchNumCalls=465
%%%mzn-stat: 2AutonomousSearchNumPredicatesAdded=218
%%%mzn-stat: 2AutonomousSearchAverageSizeOfHeap=0.46881720430107526
%%%mzn-stat: 2AutonomousSearchNumAssignedPredicatesEncountered=218
%%%mzn-stat-end
maxleg = 610;
succ = array1d(1..20,[7, 3, 4, 5, 6, 8, 2, 9, 12, 1, 14, 13, 16, 15, 17, 11, 18, 19, 20, 10]);
% time elapsed: 0.25 s
----------
%%%mzn-stat: initTime=0.005529988
%%%mzn-stat: objective=580
%%%mzn-stat: nodes=769
%%%mzn-stat: restarts=0
%%%mzn-stat: peakDepth=250
%%%mzn-stat: solveTime=0.006261822
%%%mzn-stat: variables=512
%%%mzn-stat: propagators=361
%%%mzn-stat: failures=29
%%%mzn-stat: propagations=2968
%%%mzn-stat: nogoods=29
%%%mzn-stat: numAtomicConstraintsPropagated=0
%%%mzn-stat: circuitNumber1PropagationsTotal=218
%%%mzn-stat: circuitNumber1CircuitConflicts=23
%%%mzn-stat: circuitNumber1AlldiffConflicts=0
%%%mzn-stat: circuitNumber1TotalFixedEdgesAtConflict=331
%%%mzn-stat: circuitNumber1NumberOfConflicts=23
%%%mzn-stat: circuitNumber1GacPrunings=622
%%%mzn-stat: circuitNumber1PropagationsThatGacPruned=113
%%%mzn-stat: circuitNumber1TotalPruningHallSetSize=1111
%%%mzn-stat: circuitNumber1NumberOfPruningExplanations=622
%%%mzn-stat: circuitNumber1MaxPruningHallSetSize=8
%%%mzn-stat: circuitNumber1TotalSccSizeAtPruning=483
%%%mzn-stat: circuitNumber1NumberOfSccPruningCalls=113
%%%mzn-stat: circuitNumber1TotalVarsInvolvedInPruning=589
%%%mzn-stat: circuitNumber1MaxValuesPrunedFromSingleVar=4
%%%mzn-stat: circuitNumber1HallCircuitChecks=228
%%%mzn-stat: circuitNumber1HallCircuitPrunings=44
%%%mzn-stat: circuitNumber1CircuitPreventPrunings=98
%%%mzn-stat: AverageConflictSize=3.586206896551724
%%%mzn-stat: NumUnitNogoodsLearned=0
%%%mzn-stat: AverageLearnedNogoodLength=13.89655172413793
%%%mzn-stat: AverageBacktrackAmount=0
%%%mzn-stat: AverageLbd=8.620689655172415
%%%mzn-stat: 2AutonomousSearchNumBackupCalled=689
%%%mzn-stat: 2AutonomousSearchNumPredicatesRemoved=0
%%%mzn-stat: 2AutonomousSearchNumCalls=692
%%%mzn-stat: 2AutonomousSearchNumPredicatesAdded=218
%%%mzn-stat: 2AutonomousSearchAverageSizeOfHeap=0.630057803468208
%%%mzn-stat: 2AutonomousSearchNumAssignedPredicatesEncountered=436
%%%mzn-stat-end
maxleg = 580;
succ = array1d(1..20,[7, 3, 4, 5, 6, 8, 2, 9, 12, 1, 14, 13, 16, 17, 10, 11, 18, 20, 15, 19]);
% time elapsed: 0.25 s
----------
%%%mzn-stat: initTime=0.005529988
%%%mzn-stat: objective=564
%%%mzn-stat: nodes=1006
%%%mzn-stat: restarts=0
%%%mzn-stat: peakDepth=250
%%%mzn-stat: solveTime=0.009791507
%%%mzn-stat: variables=512
%%%mzn-stat: propagators=361
%%%mzn-stat: failures=46
%%%mzn-stat: propagations=3962
%%%mzn-stat: nogoods=46
%%%mzn-stat: numAtomicConstraintsPropagated=0
%%%mzn-stat: circuitNumber1PropagationsTotal=320
%%%mzn-stat: circuitNumber1CircuitConflicts=34
%%%mzn-stat: circuitNumber1AlldiffConflicts=0
%%%mzn-stat: circuitNumber1TotalFixedEdgesAtConflict=490
%%%mzn-stat: circuitNumber1NumberOfConflicts=34
%%%mzn-stat: circuitNumber1GacPrunings=885
%%%mzn-stat: circuitNumber1PropagationsThatGacPruned=171
%%%mzn-stat: circuitNumber1TotalPruningHallSetSize=1603
%%%mzn-stat: circuitNumber1NumberOfPruningExplanations=885
%%%mzn-stat: circuitNumber1MaxPruningHallSetSize=8
%%%mzn-stat: circuitNumber1TotalSccSizeAtPruning=737
%%%mzn-stat: circuitNumber1NumberOfSccPruningCalls=171
%%%mzn-stat: circuitNumber1TotalVarsInvolvedInPruning=844
%%%mzn-stat: circuitNumber1MaxValuesPrunedFromSingleVar=4
%%%mzn-stat: circuitNumber1HallCircuitChecks=341
%%%mzn-stat: circuitNumber1HallCircuitPrunings=66
%%%mzn-stat: circuitNumber1CircuitPreventPrunings=146
%%%mzn-stat: AverageConflictSize=3.630434782608696
%%%mzn-stat: NumUnitNogoodsLearned=0
%%%mzn-stat: AverageLearnedNogoodLength=13.717391304347826
%%%mzn-stat: AverageBacktrackAmount=0
%%%mzn-stat: AverageLbd=9.456521739130435
%%%mzn-stat: 2AutonomousSearchNumBackupCalled=893
%%%mzn-stat: 2AutonomousSearchNumPredicatesRemoved=0
%%%mzn-stat: 2AutonomousSearchNumCalls=897
%%%mzn-stat: 2AutonomousSearchNumPredicatesAdded=393
%%%mzn-stat: 2AutonomousSearchAverageSizeOfHeap=0.7469342251950948
%%%mzn-stat: 2AutonomousSearchNumAssignedPredicatesEncountered=670
%%%mzn-stat-end
maxleg = 564;
succ = array1d(1..20,[8, 3, 4, 5, 6, 7, 9, 2, 12, 1, 14, 13, 16, 17, 10, 11, 18, 20, 15, 19]);
% time elapsed: 0.25 s
----------
%%%mzn-stat: initTime=0.005529988
%%%mzn-stat: objective=539
%%%mzn-stat: nodes=1217
%%%mzn-stat: restarts=0
%%%mzn-stat: peakDepth=250
%%%mzn-stat: solveTime=0.010671533
%%%mzn-stat: variables=512
%%%mzn-stat: propagators=361
%%%mzn-stat: failures=46
%%%mzn-stat: propagations=4577
%%%mzn-stat: nogoods=46
%%%mzn-stat: numAtomicConstraintsPropagated=0
%%%mzn-stat: circuitNumber1PropagationsTotal=352
%%%mzn-stat: circuitNumber1CircuitConflicts=34
%%%mzn-stat: circuitNumber1AlldiffConflicts=0
%%%mzn-stat: circuitNumber1TotalFixedEdgesAtConflict=490
%%%mzn-stat: circuitNumber1NumberOfConflicts=34
%%%mzn-stat: circuitNumber1GacPrunings=983
%%%mzn-stat: circuitNumber1PropagationsThatGacPruned=187
%%%mzn-stat: circuitNumber1TotalPruningHallSetSize=1710
%%%mzn-stat: circuitNumber1NumberOfPruningExplanations=983
%%%mzn-stat: circuitNumber1MaxPruningHallSetSize=8
%%%mzn-stat: circuitNumber1TotalSccSizeAtPruning=759
%%%mzn-stat: circuitNumber1NumberOfSccPruningCalls=187
%%%mzn-stat: circuitNumber1TotalVarsInvolvedInPruning=942
%%%mzn-stat: circuitNumber1MaxValuesPrunedFromSingleVar=4
%%%mzn-stat: circuitNumber1HallCircuitChecks=372
%%%mzn-stat: circuitNumber1HallCircuitPrunings=71
%%%mzn-stat: circuitNumber1CircuitPreventPrunings=158
%%%mzn-stat: AverageConflictSize=3.630434782608696
%%%mzn-stat: NumUnitNogoodsLearned=0
%%%mzn-stat: AverageLearnedNogoodLength=13.717391304347826
%%%mzn-stat: AverageBacktrackAmount=0
%%%mzn-stat: AverageLbd=9.456521739130435
%%%mzn-stat: 2AutonomousSearchNumBackupCalled=1089
%%%mzn-stat: 2AutonomousSearchNumPredicatesRemoved=0
%%%mzn-stat: 2AutonomousSearchNumCalls=1094
%%%mzn-stat: 2AutonomousSearchNumPredicatesAdded=393
%%%mzn-stat: 2AutonomousSearchAverageSizeOfHeap=0.8263254113345521
%%%mzn-stat: 2AutonomousSearchNumAssignedPredicatesEncountered=904
%%%mzn-stat-end
maxleg = 539;
succ = array1d(1..20,[8, 3, 4, 5, 6, 7, 9, 2, 12, 1, 14, 16, 11, 17, 10, 13, 18, 20, 15, 19]);
% time elapsed: 0.25 s
----------
%%%mzn-stat: initTime=0.005529988
%%%mzn-stat: objective=463
%%%mzn-stat: nodes=1408
%%%mzn-stat: restarts=0
%%%mzn-stat: peakDepth=250
%%%mzn-stat: solveTime=0.011503036
%%%mzn-stat: variables=512
%%%mzn-stat: propagators=361
%%%mzn-stat: failures=46
%%%mzn-stat: propagations=5186
%%%mzn-stat: nogoods=46
%%%mzn-stat: numAtomicConstraintsPropagated=0
%%%mzn-stat: circuitNumber1PropagationsTotal=383
%%%mzn-stat: circuitNumber1CircuitConflicts=34
%%%mzn-stat: circuitNumber1AlldiffConflicts=0
%%%mzn-stat: circuitNumber1TotalFixedEdgesAtConflict=490
%%%mzn-stat: circuitNumber1NumberOfConflicts=34
%%%mzn-stat: circuitNumber1GacPrunings=1082
%%%mzn-stat: circuitNumber1PropagationsThatGacPruned=202
%%%mzn-stat: circuitNumber1TotalPruningHallSetSize=1822
%%%mzn-stat: circuitNumber1NumberOfPruningExplanations=1082
%%%mzn-stat: circuitNumber1MaxPruningHallSetSize=8
%%%mzn-stat: circuitNumber1TotalSccSizeAtPruning=781
%%%mzn-stat: circuitNumber1NumberOfSccPruningCalls=202
%%%mzn-stat: circuitNumber1TotalVarsInvolvedInPruning=1038
%%%mzn-stat: circuitNumber1MaxValuesPrunedFromSingleVar=4
%%%mzn-stat: circuitNumber1HallCircuitChecks=402
%%%mzn-stat: circuitNumber1HallCircuitPrunings=74
%%%mzn-stat: circuitNumber1CircuitPreventPrunings=170
%%%mzn-stat: AverageConflictSize=3.630434782608696
%%%mzn-stat: NumUnitNogoodsLearned=0
%%%mzn-stat: AverageLearnedNogoodLength=13.717391304347826
%%%mzn-stat: AverageBacktrackAmount=0
%%%mzn-stat: AverageLbd=9.456521739130435
%%%mzn-stat: 2AutonomousSearchNumBackupCalled=1265
%%%mzn-stat: 2AutonomousSearchNumPredicatesRemoved=0
%%%mzn-stat: 2AutonomousSearchNumCalls=1271
%%%mzn-stat: 2AutonomousSearchNumPredicatesAdded=393
%%%mzn-stat: 2AutonomousSearchAverageSizeOfHeap=0.8953579858379229
%%%mzn-stat: 2AutonomousSearchNumAssignedPredicatesEncountered=1138
%%%mzn-stat-end
maxleg = 463;
succ = array1d(1..20,[8, 3, 4, 5, 6, 7, 9, 2, 12, 14, 20, 16, 11, 17, 1, 13, 15, 10, 18, 19]);
% time elapsed: 0.25 s
----------
%%%mzn-stat: initTime=0.005529988
%%%mzn-stat: objective=439
%%%mzn-stat: nodes=1581
%%%mzn-stat: restarts=0
%%%mzn-stat: peakDepth=250
%%%mzn-stat: solveTime=0.012608115
%%%mzn-stat: variables=512
%%%mzn-stat: propagators=361
%%%mzn-stat: failures=48
%%%mzn-stat: propagations=5923
%%%mzn-stat: nogoods=48
%%%mzn-stat: numAtomicConstraintsPropagated=0
%%%mzn-stat: circuitNumber1PropagationsTotal=427
%%%mzn-stat: circuitNumber1CircuitConflicts=36
%%%mzn-stat: circuitNumber1AlldiffConflicts=0
%%%mzn-stat: circuitNumber1TotalFixedEdgesAtConflict=516
%%%mzn-stat: circuitNumber1NumberOfConflicts=36
%%%mzn-stat: circuitNumber1GacPrunings=1192
%%%mzn-stat: circuitNumber1PropagationsThatGacPruned=223
%%%mzn-stat: circuitNumber1TotalPruningHallSetSize=1967
%%%mzn-stat: circuitNumber1NumberOfPruningExplanations=1192
%%%mzn-stat: circuitNumber1MaxPruningHallSetSize=9
%%%mzn-stat: circuitNumber1TotalSccSizeAtPruning=831
%%%mzn-stat: circuitNumber1NumberOfSccPruningCalls=223
%%%mzn-stat: circuitNumber1TotalVarsInvolvedInPruning=1146
%%%mzn-stat: circuitNumber1MaxValuesPrunedFromSingleVar=4
%%%mzn-stat: circuitNumber1HallCircuitChecks=445
%%%mzn-stat: circuitNumber1HallCircuitPrunings=78
%%%mzn-stat: circuitNumber1CircuitPreventPrunings=186
%%%mzn-stat: AverageConflictSize=3.625
%%%mzn-stat: NumUnitNogoodsLearned=0
%%%mzn-stat: AverageLearnedNogoodLength=13.708333333333334
%%%mzn-stat: AverageBacktrackAmount=0
%%%mzn-stat: AverageLbd=9.270833333333334
%%%mzn-stat: 2AutonomousSearchNumBackupCalled=1418
%%%mzn-stat: 2AutonomousSearchNumPredicatesRemoved=0
%%%mzn-stat: 2AutonomousSearchNumCalls=1425
%%%mzn-stat: 2AutonomousSearchNumPredicatesAdded=445
%%%mzn-stat: 2AutonomousSearchAverageSizeOfHeap=0.9642105263157895
%%%mzn-stat: 2AutonomousSearchNumAssignedPredicatesEncountered=1374
%%%mzn-stat-end
maxleg = 439;
succ = array1d(1..20,[8, 3, 5, 6, 4, 7, 9, 2, 12, 14, 20, 16, 11, 17, 1, 13, 15, 10, 18, 19]);
% time elapsed: 0.25 s
----------
%%%mzn-stat: initTime=0.005529988
%%%mzn-stat: objective=434
%%%mzn-stat: nodes=1751
%%%mzn-stat: restarts=0
%%%mzn-stat: peakDepth=250
%%%mzn-stat: solveTime=0.013479842
%%%mzn-stat: variables=512
%%%mzn-stat: propagators=361
%%%mzn-stat: failures=49
%%%mzn-stat: propagations=6589
%%%mzn-stat: nogoods=49
%%%mzn-stat: numAtomicConstraintsPropagated=0
%%%mzn-stat: circuitNumber1PropagationsTotal=462
%%%mzn-stat: circuitNumber1CircuitConflicts=36
%%%mzn-stat: circuitNumber1AlldiffConflicts=0
%%%mzn-stat: circuitNumber1TotalFixedEdgesAtConflict=516
%%%mzn-stat: circuitNumber1NumberOfConflicts=36
%%%mzn-stat: circuitNumber1GacPrunings=1273
%%%mzn-stat: circuitNumber1PropagationsThatGacPruned=240
%%%mzn-stat: circuitNumber1TotalPruningHallSetSize=2061
%%%mzn-stat: circuitNumber1NumberOfPruningExplanations=1273
%%%mzn-stat: circuitNumber1MaxPruningHallSetSize=9
%%%mzn-stat: circuitNumber1TotalSccSizeAtPruning=857
%%%mzn-stat: circuitNumber1NumberOfSccPruningCalls=240
%%%mzn-stat: circuitNumber1TotalVarsInvolvedInPruning=1225
%%%mzn-stat: circuitNumber1MaxValuesPrunedFromSingleVar=4
%%%mzn-stat: circuitNumber1HallCircuitChecks=478
%%%mzn-stat: circuitNumber1HallCircuitPrunings=80
%%%mzn-stat: circuitNumber1CircuitPreventPrunings=198
%%%mzn-stat: AverageConflictSize=3.63265306122449
%%%mzn-stat: NumUnitNogoodsLearned=0
%%%mzn-stat: AverageLearnedNogoodLength=13.63265306122449
%%%mzn-stat: AverageBacktrackAmount=0
%%%mzn-stat: AverageLbd=9.204081632653061
%%%mzn-stat: 2AutonomousSearchNumBackupCalled=1571
%%%mzn-stat: 2AutonomousSearchNumPredicatesRemoved=0
%%%mzn-stat: 2AutonomousSearchNumCalls=1579
%%%mzn-stat: 2AutonomousSearchNumPredicatesAdded=459
%%%mzn-stat: 2AutonomousSearchAverageSizeOfHeap=1.0240658644711842
%%%mzn-stat: 2AutonomousSearchNumAssignedPredicatesEncountered=1617
%%%mzn-stat-end
maxleg = 434;
succ = array1d(1..20,[8, 3, 5, 6, 4, 7, 9, 2, 12, 14, 20, 16, 11, 18, 1, 13, 15, 17, 10, 19]);
% time elapsed: 0.25 s
----------
%%%mzn-stat: initTime=0.005529988
%%%mzn-stat: objective=433
%%%mzn-stat: nodes=1916
%%%mzn-stat: restarts=0
%%%mzn-stat: peakDepth=250
%%%mzn-stat: solveTime=0.014829433
%%%mzn-stat: variables=512
%%%mzn-stat: propagators=361
%%%mzn-stat: failures=52
%%%mzn-stat: propagations=7335
%%%mzn-stat: nogoods=52
%%%mzn-stat: numAtomicConstraintsPropagated=0
%%%mzn-stat: circuitNumber1PropagationsTotal=505
%%%mzn-stat: circuitNumber1CircuitConflicts=39
%%%mzn-stat: circuitNumber1AlldiffConflicts=0
%%%mzn-stat: circuitNumber1TotalFixedEdgesAtConflict=549
%%%mzn-stat: circuitNumber1NumberOfConflicts=39
%%%mzn-stat: circuitNumber1GacPrunings=1378
%%%mzn-stat: circuitNumber1PropagationsThatGacPruned=261
%%%mzn-stat: circuitNumber1TotalPruningHallSetSize=2225
%%%mzn-stat: circuitNumber1NumberOfPruningExplanations=1378
%%%mzn-stat: circuitNumber1MaxPruningHallSetSize=10
%%%mzn-stat: circuitNumber1TotalSccSizeAtPruning=929
%%%mzn-stat: circuitNumber1NumberOfSccPruningCalls=261
%%%mzn-stat: circuitNumber1TotalVarsInvolvedInPruning=1326
%%%mzn-stat: circuitNumber1MaxValuesPrunedFromSingleVar=4
%%%mzn-stat: circuitNumber1HallCircuitChecks=524
%%%mzn-stat: circuitNumber1HallCircuitPrunings=83
%%%mzn-stat: circuitNumber1CircuitPreventPrunings=216
%%%mzn-stat: AverageConflictSize=3.5961538461538463
%%%mzn-stat: NumUnitNogoodsLearned=0
%%%mzn-stat: AverageLearnedNogoodLength=14.73076923076923
%%%mzn-stat: AverageBacktrackAmount=0
%%%mzn-stat: AverageLbd=9.076923076923077
%%%mzn-stat: 2AutonomousSearchNumBackupCalled=1721
%%%mzn-stat: 2AutonomousSearchNumPredicatesRemoved=0
%%%mzn-stat: 2AutonomousSearchNumCalls=1730
%%%mzn-stat: 2AutonomousSearchNumPredicatesAdded=527
%%%mzn-stat: 2AutonomousSearchAverageSizeOfHeap=1.0895953757225434
%%%mzn-stat: 2AutonomousSearchNumAssignedPredicatesEncountered=1885
%%%mzn-stat-end
maxleg = 433;
succ = array1d(1..20,[8, 3, 5, 6, 4, 7, 9, 12, 1, 14, 20, 16, 11, 2, 17, 13, 18, 10, 15, 19]);
% time elapsed: 0.25 s
----------
%%%mzn-stat: initTime=0.005529988
%%%mzn-stat: objective=432
%%%mzn-stat: nodes=2078
%%%mzn-stat: restarts=0
%%%mzn-stat: peakDepth=250
%%%mzn-stat: solveTime=0.016006584
%%%mzn-stat: variables=512
%%%mzn-stat: propagators=361
%%%mzn-stat: failures=54
%%%mzn-stat: propagations=8019
%%%mzn-stat: nogoods=54
%%%mzn-stat: numAtomicConstraintsPropagated=0
%%%mzn-stat: circuitNumber1PropagationsTotal=542
%%%mzn-stat: circuitNumber1CircuitConflicts=39
%%%mzn-stat: circuitNumber1AlldiffConflicts=0
%%%mzn-stat: circuitNumber1TotalFixedEdgesAtConflict=549
%%%mzn-stat: circuitNumber1NumberOfConflicts=39
%%%mzn-stat: circuitNumber1GacPrunings=1474
%%%mzn-stat: circuitNumber1PropagationsThatGacPruned=281
%%%mzn-stat: circuitNumber1TotalPruningHallSetSize=2398
%%%mzn-stat: circuitNumber1NumberOfPruningExplanations=1474
%%%mzn-stat: circuitNumber1MaxPruningHallSetSize=14
%%%mzn-stat: circuitNumber1TotalSccSizeAtPruning=1061
%%%mzn-stat: circuitNumber1NumberOfSccPruningCalls=281
%%%mzn-stat: circuitNumber1TotalVarsInvolvedInPruning=1417
%%%mzn-stat: circuitNumber1MaxValuesPrunedFromSingleVar=4
%%%mzn-stat: circuitNumber1HallCircuitChecks=562
%%%mzn-stat: circuitNumber1HallCircuitPrunings=86
%%%mzn-stat: circuitNumber1CircuitPreventPrunings=233
%%%mzn-stat: AverageConflictSize=3.574074074074074
%%%mzn-stat: NumUnitNogoodsLearned=0
%%%mzn-stat: AverageLearnedNogoodLength=15.851851851851851
%%%mzn-stat: AverageBacktrackAmount=0
%%%mzn-stat: AverageLbd=9
%%%mzn-stat: 2AutonomousSearchNumBackupCalled=1869
%%%mzn-stat: 2AutonomousSearchNumPredicatesRemoved=0
%%%mzn-stat: 2AutonomousSearchNumCalls=1879
%%%mzn-stat: 2AutonomousSearchNumPredicatesAdded=620
%%%mzn-stat: 2AutonomousSearchAverageSizeOfHeap=1.1681745609366685
%%%mzn-stat: 2AutonomousSearchNumAssignedPredicatesEncountered=2195
%%%mzn-stat-end
maxleg = 432;
succ = array1d(1..20,[8, 3, 5, 6, 4, 13, 2, 7, 1, 9, 14, 11, 16, 18, 19, 12, 15, 17, 20, 10]);
% time elapsed: 0.25 s
----------
%%%mzn-stat: initTime=0.005529988
%%%mzn-stat: objective=400
%%%mzn-stat: nodes=2216
%%%mzn-stat: restarts=0
%%%mzn-stat: peakDepth=250
%%%mzn-stat: solveTime=0.016759513
%%%mzn-stat: variables=512
%%%mzn-stat: propagators=361
%%%mzn-stat: failures=54
%%%mzn-stat: propagations=8670
%%%mzn-stat: nogoods=54
%%%mzn-stat: numAtomicConstraintsPropagated=0
%%%mzn-stat: circuitNumber1PropagationsTotal=569
%%%mzn-stat: circuitNumber1CircuitConflicts=39
%%%mzn-stat: circuitNumber1AlldiffConflicts=0
%%%mzn-stat: circuitNumber1TotalFixedEdgesAtConflict=549
%%%mzn-stat: circuitNumber1NumberOfConflicts=39
%%%mzn-stat: circuitNumber1GacPrunings=1549
%%%mzn-stat: circuitNumber1PropagationsThatGacPruned=295
%%%mzn-stat: circuitNumber1TotalPruningHallSetSize=2494
%%%mzn-stat: circuitNumber1NumberOfPruningExplanations=1549
%%%mzn-stat: circuitNumber1MaxPruningHallSetSize=14
%%%mzn-stat: circuitNumber1TotalSccSizeAtPruning=1085
%%%mzn-stat: circuitNumber1NumberOfSccPruningCalls=295
%%%mzn-stat: circuitNumber1TotalVarsInvolvedInPruning=1487
%%%mzn-stat: circuitNumber1MaxValuesPrunedFromSingleVar=4
%%%mzn-stat: circuitNumber1HallCircuitChecks=588
%%%mzn-stat: circuitNumber1HallCircuitPrunings=88
%%%mzn-stat: circuitNumber1CircuitPreventPrunings=244
%%%mzn-stat: AverageConflictSize=3.574074074074074
%%%mzn-stat: NumUnitNogoodsLearned=0
%%%mzn-stat: AverageLearnedNogoodLength=15.851851851851851
%%%mzn-stat: AverageBacktrackAmount=0
%%%mzn-stat: AverageLbd=9
%%%mzn-stat: 2AutonomousSearchNumBackupCalled=1995
%%%mzn-stat: 2AutonomousSearchNumPredicatesRemoved=0
%%%mzn-stat: 2AutonomousSearchNumCalls=2006
%%%mzn-stat: 2AutonomousSearchNumPredicatesAdded=620
%%%mzn-stat: 2AutonomousSearchAverageSizeOfHeap=1.2487537387836491
%%%mzn-stat: 2AutonomousSearchNumAssignedPredicatesEncountered=2505
%%%mzn-stat-end
maxleg = 400;
succ = array1d(1..20,[8, 3, 5, 6, 4, 13, 2, 7, 10, 14, 9, 11, 16, 20, 1, 12, 15, 17, 18, 19]);
% time elapsed: 0.25 s
----------
%%%mzn-stat: initTime=0.005529988
%%%mzn-stat: objective=392
%%%mzn-stat: nodes=2355
%%%mzn-stat: restarts=0
%%%mzn-stat: peakDepth=250
%%%mzn-stat: solveTime=0.017938018
%%%mzn-stat: variables=512
%%%mzn-stat: propagators=361
%%%mzn-stat: failures=56
%%%mzn-stat: propagations=9398
%%%mzn-stat: nogoods=56
%%%mzn-stat: numAtomicConstraintsPropagated=0
%%%mzn-stat: circuitNumber1PropagationsTotal=606
%%%mzn-stat: circuitNumber1CircuitConflicts=39
%%%mzn-stat: circuitNumber1AlldiffConflicts=0
%%%mzn-stat: circuitNumber1TotalFixedEdgesAtConflict=549
%%%mzn-stat: circuitNumber1NumberOfConflicts=39
%%%mzn-stat: circuitNumber1GacPrunings=1634
%%%mzn-stat: circuitNumber1PropagationsThatGacPruned=314
%%%mzn-stat: circuitNumber1TotalPruningHallSetSize=2715
%%%mzn-stat: circuitNumber1NumberOfPruningExplanations=1634
%%%mzn-stat: circuitNumber1MaxPruningHallSetSize=18
%%%mzn-stat: circuitNumber1TotalSccSizeAtPruning=1227
%%%mzn-stat: circuitNumber1NumberOfSccPruningCalls=314
%%%mzn-stat: circuitNumber1TotalVarsInvolvedInPruning=1567
%%%mzn-stat: circuitNumber1MaxValuesPrunedFromSingleVar=5
%%%mzn-stat: circuitNumber1HallCircuitChecks=625
%%%mzn-stat: circuitNumber1HallCircuitPrunings=92
%%%mzn-stat: circuitNumber1CircuitPreventPrunings=262
%%%mzn-stat: AverageConflictSize=3.5535714285714284
%%%mzn-stat: NumUnitNogoodsLearned=0
%%%mzn-stat: AverageLearnedNogoodLength=17.071428571428573
%%%mzn-stat: AverageBacktrackAmount=0
%%%mzn-stat: AverageLbd=8.928571428571429
%%%mzn-stat: 2AutonomousSearchNumBackupCalled=2120
%%%mzn-stat: 2AutonomousSearchNumPredicatesRemoved=0
%%%mzn-stat: 2AutonomousSearchNumCalls=2132
%%%mzn-stat: 2AutonomousSearchNumPredicatesAdded=717
%%%mzn-stat: 2AutonomousSearchAverageSizeOfHeap=1.3231707317073171
%%%mzn-stat: 2AutonomousSearchNumAssignedPredicatesEncountered=2821
%%%mzn-stat-end
maxleg = 392;
succ = array1d(1..20,[15, 3, 5, 6, 4, 13, 2, 7, 10, 14, 9, 11, 16, 20, 8, 12, 1, 17, 18, 19]);
% time elapsed: 0.25 s
----------
==========
% time elapsed: 0.25 s
%%%mzn-stat: initTime=0.005529988
%%%mzn-stat: objective=392
%%%mzn-stat: nodes=2356
%%%mzn-stat: restarts=0
%%%mzn-stat: peakDepth=250
%%%mzn-stat: solveTime=0.01838213
%%%mzn-stat: variables=512
%%%mzn-stat: propagators=361
%%%mzn-stat: failures=58
%%%mzn-stat: propagations=9671
%%%mzn-stat: nogoods=58
%%%mzn-stat: numAtomicConstraintsPropagated=0
%%%mzn-stat: circuitNumber1PropagationsTotal=611
%%%mzn-stat: circuitNumber1CircuitConflicts=40
%%%mzn-stat: circuitNumber1AlldiffConflicts=0
%%%mzn-stat: circuitNumber1TotalFixedEdgesAtConflict=552
%%%mzn-stat: circuitNumber1NumberOfConflicts=40
%%%mzn-stat: circuitNumber1GacPrunings=1657
%%%mzn-stat: circuitNumber1PropagationsThatGacPruned=317
%%%mzn-stat: circuitNumber1TotalPruningHallSetSize=2909
%%%mzn-stat: circuitNumber1NumberOfPruningExplanations=1657
%%%mzn-stat: circuitNumber1MaxPruningHallSetSize=18
%%%mzn-stat: circuitNumber1TotalSccSizeAtPruning=1299
%%%mzn-stat: circuitNumber1NumberOfSccPruningCalls=317
%%%mzn-stat: circuitNumber1TotalVarsInvolvedInPruning=1581
%%%mzn-stat: circuitNumber1MaxValuesPrunedFromSingleVar=6
%%%mzn-stat: circuitNumber1HallCircuitChecks=628
%%%mzn-stat: circuitNumber1HallCircuitPrunings=93
%%%mzn-stat: circuitNumber1CircuitPreventPrunings=265
%%%mzn-stat: AverageConflictSize=3.5344827586206895
%%%mzn-stat: NumUnitNogoodsLearned=1
%%%mzn-stat: AverageLearnedNogoodLength=17.086206896551722
%%%mzn-stat: AverageBacktrackAmount=0
%%%mzn-stat: AverageLbd=8.672413793103448
%%%mzn-stat: 2AutonomousSearchNumBackupCalled=2120
%%%mzn-stat: 2AutonomousSearchNumPredicatesRemoved=0
%%%mzn-stat: 2AutonomousSearchNumCalls=2132
%%%mzn-stat: 2AutonomousSearchNumPredicatesAdded=1005
%%%mzn-stat: 2AutonomousSearchAverageSizeOfHeap=1.3231707317073171
%%%mzn-stat: 2AutonomousSearchNumAssignedPredicatesEncountered=2821
%%%mzn-stat-end
